set FRANJA := 1 2 3 4 5;
set AUTOBUS := 1 2 3 4 5;
set TALLER := 1 2 3 4 5;

param C : 1 2 3 4 5 :=
  1 0 100 100 100 0
  2 100 0 0 100 0
  3 100 0 0 100 100
  4 0 100 120 120 120
  5 120 100 0 0 0
;

param O : 1 2 3 4 5 :=
  1 1 0 1 1 1
  2 1 1 0 1 1
  3 0 0 1 0 1
  4 1 1 1 0 1
  5 1 0 1 0 1
;

end;
